p tw 46 51
1 2
2 13
3 4
4 5
4 7
5 6
6 43
7 8
8 9
9 10
10 11
11 40
12 14
13 24
14 15
15 16
15 21
16 17
17 18
18 19
19 20
20 40
21 22
22 23
23 25
24 35
24 12
25 26
25 28
26 27
27 28
28 29
29 30
30 31
30 37
31 32
32 33
33 34
34 36
35 42
36 40
37 38
38 39
39 40
40 41
42 43
43 44
44 45
45 46
46 3
46 7
